NAME : n60w140.001.596.tour
COMMENT : Length = 596
COMMENT : Found by LKH [Keld Helsgaun] Tue May  2 05:47:32 2017
TYPE : TOUR
DIMENSION : 61
TOUR_SECTION
1
19
4
33
34
41
8
56
30
18
12
45
7
59
16
20
25
57
40
13
5
9
22
43
29
26
3
15
53
17
32
48
44
55
28
60
37
46
58
21
36
47
54
10
49
50
6
27
35
38
51
31
24
11
52
39
23
42
14
2
61
-1
EOF
